NAME : kroE100-C-3-1-a__cluster_same_priority_ls__26706.tour
COMMENT : Length = 26706.000
COMMENT : Generated by compare_sota_instances.py for cluster_same_priority_ls
TYPE : TOUR
DIMENSION : 100
TOUR_SECTION
60
50
49
56
20
15
23
28
36
95
64
62
84
17
1
3
46
26
79
81
89
71
61
16
47
73
14
52
44
72
68
38
33
22
39
43
86
19
94
18
24
29
100
78
53
34
37
77
85
96
70
6
55
91
93
30
90
48
42
5
8
83
69
51
21
74
7
76
12
98
59
32
58
63
88
35
40
99
45
54
25
65
31
57
80
97
10
9
75
41
87
27
67
2
11
4
82
92
13
66
-1
EOF
